\ Model vert
\ LP format - for model browsing. Use MPS format to capture full model detail.
\ Signature: 0xc60ddf5a1d6698dd
Minimize
  558065.3313872918 S_coef + 4325.512695783441 Constant + [
   3.6e+07 S_coef ^2 ] / 2 
Subject To
Bounds
 -1000 <= S_coef <= 1000
 Constant = 1
End
